c User generated cnf file
p cnf 6 28
3 -6 4 0 
-6 2 1 0 
2 -6 3 0 
-3 1 4 0 
1 3 -5 0 
-5 1 5 0 
5 -3 6 0 
-1 6 4 0 
-2 5 4 0 
-2 4 6 0 
1 6 -3 0 
5 2 -6 0 
1 -6 1 0 
4 -1 6 0 
-3 3 1 0 
6 4 -2 0 
-3 4 5 0 
5 -6 4 0 
2 -2 1 0 
4 3 -1 0 
1 -4 3 0 
3 -4 5 0 
3 6 -1 0 
-4 6 4 0 
6 4 -5 0 
5 3 -4 0 
6 -4 2 0 
-2 6 6 0 
